
se = 40; % nombre de sessions
gr = 20; % nombre de grups de treball
cl = 7; % nombre de slots
minPapersPerSlot = 3; % minim nombre d'articles per sessio i slot
maxSesionsPar = 14; % maxim nombre de sessions paraleles

npMax = [5, 3, 6, 3, 4, 6, 5]; % nombre maxim de papers per slot

np = [6, 3, 10, 9, 4, 13, 3, 3, 6, 10, 7, 10, 12, 3, 15, 17, 3, 6, 6, 5, 11, 10, 13, 15, 11, 10, 3, 11, 3, 10, 7, 4, 14, 3, 10, 5, 3, 3, 3, 13]; % nombre de papers acceptats a cada sessio

WG = [ {1}, {}, {2,3}, {}, {4}, {5,6}, {7}, {}, {8,9,10}, {11}, {}, {}, {}, {12,13,14}, {15}, {16}, {17}, {18}, {19}, {20}, {1}, {2}, {}, {3}, {4,5}, {}, {6}, {7}, {8}, {9,10}, {11}, {}, {12}, {13,14}, {15}, {16,17}, {18,19,20}, {1}, {}, {2} ]; % grups per sessio

